; benchmark generated from python API
(set-info :status unknown)
(declare-fun x_epoch () Int)
(declare-fun x_plus_epoch () Int)
(declare-fun x_plus_month () Int)
(declare-fun x_plus_year () Int)
(declare-fun x_plus_day () Int)
(declare-fun x_plus_1_epoch () Int)
(assert
 (>= x_epoch (- 36584)))
(assert
 (<= x_epoch 36829))
(assert
 (>= x_epoch 7245))
(assert
 (<= x_epoch 7303))
(assert
 (>= x_plus_epoch (- 36584)))
(assert
 (<= x_plus_epoch 36829))
(assert
 (let (($x434 (= x_plus_month 11)))
 (let (($x992 (= x_plus_month 9)))
 (let (($x635 (= x_plus_month 6)))
 (let (($x2268 (= x_plus_month 4)))
 (let ((?x3253 (ite (or $x2268 $x635 $x992 $x434) 30 31)))
 (let (($x3012 (= (mod x_plus_year 400) 0)))
 (let (($x656 (= (mod x_plus_year 4) 0)))
 (let (($x931 (or (and $x656 (and (distinct (mod x_plus_year 100) 0) true)) $x3012)))
 (let (($x547 (= x_plus_month 2)))
 (let (($x3147 (>= x_plus_day 1)))
 (let (($x435 (<= x_plus_month 12)))
 (let (($x2589 (>= x_plus_month 1)))
 (let (($x3589 (<= x_plus_year 2100)))
 (let (($x2817 (>= x_plus_year 1900)))
 (and $x2817 $x3589 $x2589 $x435 $x3147 (<= x_plus_day (ite $x547 (ite $x931 29 28) ?x3253))))))))))))))))))
(assert
 (let (($x3012 (= (mod x_plus_year 400) 0)))
 (let (($x656 (= (mod x_plus_year 4) 0)))
 (let (($x931 (or (and $x656 (and (distinct (mod x_plus_year 100) 0) true)) $x3012)))
 (let ((?x918 (ite (= 2 x_plus_month) (ite $x931 31 31) (ite (= 1 x_plus_month) (ite $x931 0 0) 0))))
 (let ((?x619 (ite (= 4 x_plus_month) (ite $x931 91 90) (ite (= 3 x_plus_month) (ite $x931 60 59) ?x918))))
 (let ((?x3155 (ite (= 6 x_plus_month) (ite $x931 152 151) (ite (= 5 x_plus_month) (ite $x931 121 120) ?x619))))
 (let ((?x1806 (ite (= 8 x_plus_month) (ite $x931 213 212) (ite (= 7 x_plus_month) (ite $x931 182 181) ?x3155))))
 (let ((?x812 (ite (= 10 x_plus_month) (ite $x931 274 273) (ite (= 9 x_plus_month) (ite $x931 244 243) ?x1806))))
 (let ((?x1399 (ite (= 12 x_plus_month) (ite $x931 335 334) (ite (= 11 x_plus_month) (ite $x931 305 304) ?x812))))
 (let ((?x884 (+ (* 365 (- x_plus_year 1)) (div (- x_plus_year 1) 4))))
 (let ((?x1223 (+ (- ?x884 (div (- x_plus_year 1) 100)) (div (- x_plus_year 1) 400))))
 (= x_plus_epoch (- (+ (+ ?x1223 ?x1399) (- x_plus_day 1)) 730179))))))))))))))
(assert
 (let ((?x530 (+ x_epoch 730179)))
 (let ((?x467 (mod ?x530 146097)))
 (let ((?x880 (div ?x467 36524)))
 (let ((?x518 (ite (<= 4 ?x880) 3 ?x880)))
 (let ((?x910 (- ?x467 (* ?x518 36524))))
 (let ((?x696 (mod ?x910 1461)))
 (let ((?x777 (div ?x696 365)))
 (let ((?x350 (ite (<= 4 ?x777) 3 ?x777)))
 (let ((?x641 (+ (+ (* (div ?x530 146097) 400) (* ?x518 100)) (* (div ?x910 1461) 4))))
 (let ((?x640 (+ (+ ?x641 ?x350) 1)))
 (let (($x352 (or (and (= (mod ?x640 4) 0) (and (distinct (mod ?x640 100) 0) true)) (= (mod ?x640 400) 0))))
 (let ((?x441 (- ?x696 (* ?x350 365))))
 (let ((?x705 (ite $x352 31 31)))
 (let (($x580 (>= ?x441 ?x705)))
 (let ((?x615 (ite $x580 (+ (- ?x441 ?x705) 1) (+ (- ?x441 (ite $x352 0 0)) 1))))
 (let ((?x451 (ite $x352 60 59)))
 (let (($x339 (>= ?x441 ?x451)))
 (let ((?x889 (ite $x352 91 90)))
 (let (($x266 (>= ?x441 ?x889)))
 (let ((?x524 (ite $x266 (+ (- ?x441 ?x889) 1) (ite $x339 (+ (- ?x441 ?x451) 1) ?x615))))
 (let ((?x758 (ite $x352 121 120)))
 (let (($x2982 (>= ?x441 ?x758)))
 (let ((?x675 (ite $x352 152 151)))
 (let (($x3136 (>= ?x441 ?x675)))
 (let ((?x586 (ite $x3136 (+ (- ?x441 ?x675) 1) (ite $x2982 (+ (- ?x441 ?x758) 1) ?x524))))
 (let ((?x2351 (ite $x352 182 181)))
 (let (($x2212 (>= ?x441 ?x2351)))
 (let ((?x1900 (ite $x352 213 212)))
 (let (($x459 (>= ?x441 ?x1900)))
 (let ((?x379 (ite $x459 (+ (- ?x441 ?x1900) 1) (ite $x2212 (+ (- ?x441 ?x2351) 1) ?x586))))
 (let ((?x779 (ite $x352 244 243)))
 (let (($x891 (>= ?x441 ?x779)))
 (let ((?x783 (ite $x352 274 273)))
 (let (($x521 (>= ?x441 ?x783)))
 (let ((?x938 (ite $x521 (+ (- ?x441 ?x783) 1) (ite $x891 (+ (- ?x441 ?x779) 1) ?x379))))
 (let ((?x865 (ite $x352 305 304)))
 (let (($x623 (>= ?x441 ?x865)))
 (let ((?x297 (ite $x352 335 334)))
 (let (($x693 (>= ?x441 ?x297)))
 (let ((?x688 (ite $x693 (+ (- ?x441 ?x297) 1) (ite $x623 (+ (- ?x441 ?x865) 1) ?x938))))
 (let ((?x2919 (+ (* 1 12) 0)))
 (let ((?x856 (ite $x2982 5 (ite $x266 4 (ite $x339 3 (ite $x580 2 1))))))
 (let ((?x525 (ite $x891 9 (ite $x459 8 (ite $x2212 7 (ite $x3136 6 ?x856))))))
 (let ((?x578 (ite $x693 12 (ite $x623 11 (ite $x521 10 ?x525)))))
 (let ((?x405 (+ ?x578 ?x2919)))
 (let ((?x230 (- ?x405 1)))
 (let ((?x3366 (+ (mod ?x230 12) 1)))
 (let ((?x704 (ite (or (= ?x3366 4) (= ?x3366 6) (= ?x3366 9) (= ?x3366 11)) 30 31)))
 (let (($x941 (and (= (mod (+ ?x640 (+ 0 (div ?x230 12))) 4) 0) (and (distinct (mod (+ ?x640 (+ 0 (div ?x230 12))) 100) 0) true))))
 (let (($x450 (or $x941 (= (mod (+ ?x640 (+ 0 (div ?x230 12))) 400) 0))))
 (let ((?x837 (ite (= ?x3366 2) (ite $x450 29 28) ?x704)))
 (let (($x486 (> 1 ?x688)))
 (let ((?x737 (ite $x486 1 (ite (> ?x688 ?x837) ?x837 ?x688))))
 (let ((?x919 (ite (> 1 ?x737) 1 (ite (> ?x737 ?x837) ?x837 ?x737))))
 (let ((?x475 (ite (= 2 ?x3366) (ite $x450 31 31) (ite (= 1 ?x3366) (ite $x450 0 0) 0))))
 (let ((?x478 (ite (= 4 ?x3366) (ite $x450 91 90) (ite (= 3 ?x3366) (ite $x450 60 59) ?x475))))
 (let ((?x448 (ite (= 6 ?x3366) (ite $x450 152 151) (ite (= 5 ?x3366) (ite $x450 121 120) ?x478))))
 (let ((?x2939 (ite (= 8 ?x3366) (ite $x450 213 212) (ite (= 7 ?x3366) (ite $x450 182 181) ?x448))))
 (let ((?x713 (ite (= 10 ?x3366) (ite $x450 274 273) (ite (= 9 ?x3366) (ite $x450 244 243) ?x2939))))
 (let ((?x3066 (ite (= 12 ?x3366) (ite $x450 335 334) (ite (= 11 ?x3366) (ite $x450 305 304) ?x713))))
 (let ((?x422 (+ (* 365 (- (+ ?x640 (+ 0 (div ?x230 12))) 1)) (div (- (+ ?x640 (+ 0 (div ?x230 12))) 1) 4))))
 (let ((?x948 (+ (- ?x422 (div (- (+ ?x640 (+ 0 (div ?x230 12))) 1) 100)) (div (- (+ ?x640 (+ 0 (div ?x230 12))) 1) 400))))
 (let ((?x1078 (+ (+ (- (+ (+ ?x948 ?x3066) (- ?x919 1)) 730179) 0) 730179)))
 (let ((?x3419 (mod ?x1078 146097)))
 (let ((?x565 (div ?x3419 36524)))
 (let ((?x386 (ite (<= 4 ?x565) 3 ?x565)))
 (let ((?x628 (- ?x3419 (* ?x386 36524))))
 (let ((?x723 (mod ?x628 1461)))
 (let ((?x815 (div ?x723 365)))
 (let ((?x509 (ite (<= 4 ?x815) 3 ?x815)))
 (let ((?x840 (+ (+ (* (div ?x1078 146097) 400) (* ?x386 100)) (* (div ?x628 1461) 4))))
 (let ((?x637 (+ (+ ?x840 ?x509) 1)))
 (let ((?x364 (+ 0 (div ?x230 12))))
 (let ((?x553 (+ ?x640 ?x364)))
 (let (($x2213 (= 0 0)))
 (let ((?x665 (ite $x2213 ?x553 ?x637)))
 (= x_plus_year ?x665))))))))))))))))))))))))))))))))))))))))))))))))))))))))))))))))))))))))))))))
(assert
 (let ((?x530 (+ x_epoch 730179)))
 (let ((?x467 (mod ?x530 146097)))
 (let ((?x880 (div ?x467 36524)))
 (let ((?x518 (ite (<= 4 ?x880) 3 ?x880)))
 (let ((?x910 (- ?x467 (* ?x518 36524))))
 (let ((?x696 (mod ?x910 1461)))
 (let ((?x777 (div ?x696 365)))
 (let ((?x350 (ite (<= 4 ?x777) 3 ?x777)))
 (let ((?x641 (+ (+ (* (div ?x530 146097) 400) (* ?x518 100)) (* (div ?x910 1461) 4))))
 (let ((?x640 (+ (+ ?x641 ?x350) 1)))
 (let (($x352 (or (and (= (mod ?x640 4) 0) (and (distinct (mod ?x640 100) 0) true)) (= (mod ?x640 400) 0))))
 (let ((?x441 (- ?x696 (* ?x350 365))))
 (let ((?x705 (ite $x352 31 31)))
 (let (($x580 (>= ?x441 ?x705)))
 (let ((?x615 (ite $x580 (+ (- ?x441 ?x705) 1) (+ (- ?x441 (ite $x352 0 0)) 1))))
 (let ((?x451 (ite $x352 60 59)))
 (let (($x339 (>= ?x441 ?x451)))
 (let ((?x889 (ite $x352 91 90)))
 (let (($x266 (>= ?x441 ?x889)))
 (let ((?x524 (ite $x266 (+ (- ?x441 ?x889) 1) (ite $x339 (+ (- ?x441 ?x451) 1) ?x615))))
 (let ((?x758 (ite $x352 121 120)))
 (let (($x2982 (>= ?x441 ?x758)))
 (let ((?x675 (ite $x352 152 151)))
 (let (($x3136 (>= ?x441 ?x675)))
 (let ((?x586 (ite $x3136 (+ (- ?x441 ?x675) 1) (ite $x2982 (+ (- ?x441 ?x758) 1) ?x524))))
 (let ((?x2351 (ite $x352 182 181)))
 (let (($x2212 (>= ?x441 ?x2351)))
 (let ((?x1900 (ite $x352 213 212)))
 (let (($x459 (>= ?x441 ?x1900)))
 (let ((?x379 (ite $x459 (+ (- ?x441 ?x1900) 1) (ite $x2212 (+ (- ?x441 ?x2351) 1) ?x586))))
 (let ((?x779 (ite $x352 244 243)))
 (let (($x891 (>= ?x441 ?x779)))
 (let ((?x783 (ite $x352 274 273)))
 (let (($x521 (>= ?x441 ?x783)))
 (let ((?x938 (ite $x521 (+ (- ?x441 ?x783) 1) (ite $x891 (+ (- ?x441 ?x779) 1) ?x379))))
 (let ((?x865 (ite $x352 305 304)))
 (let (($x623 (>= ?x441 ?x865)))
 (let ((?x297 (ite $x352 335 334)))
 (let (($x693 (>= ?x441 ?x297)))
 (let ((?x688 (ite $x693 (+ (- ?x441 ?x297) 1) (ite $x623 (+ (- ?x441 ?x865) 1) ?x938))))
 (let ((?x2919 (+ (* 1 12) 0)))
 (let ((?x856 (ite $x2982 5 (ite $x266 4 (ite $x339 3 (ite $x580 2 1))))))
 (let ((?x525 (ite $x891 9 (ite $x459 8 (ite $x2212 7 (ite $x3136 6 ?x856))))))
 (let ((?x578 (ite $x693 12 (ite $x623 11 (ite $x521 10 ?x525)))))
 (let ((?x405 (+ ?x578 ?x2919)))
 (let ((?x230 (- ?x405 1)))
 (let ((?x3366 (+ (mod ?x230 12) 1)))
 (let ((?x704 (ite (or (= ?x3366 4) (= ?x3366 6) (= ?x3366 9) (= ?x3366 11)) 30 31)))
 (let (($x941 (and (= (mod (+ ?x640 (+ 0 (div ?x230 12))) 4) 0) (and (distinct (mod (+ ?x640 (+ 0 (div ?x230 12))) 100) 0) true))))
 (let (($x450 (or $x941 (= (mod (+ ?x640 (+ 0 (div ?x230 12))) 400) 0))))
 (let ((?x837 (ite (= ?x3366 2) (ite $x450 29 28) ?x704)))
 (let (($x486 (> 1 ?x688)))
 (let ((?x737 (ite $x486 1 (ite (> ?x688 ?x837) ?x837 ?x688))))
 (let ((?x919 (ite (> 1 ?x737) 1 (ite (> ?x737 ?x837) ?x837 ?x737))))
 (let ((?x475 (ite (= 2 ?x3366) (ite $x450 31 31) (ite (= 1 ?x3366) (ite $x450 0 0) 0))))
 (let ((?x478 (ite (= 4 ?x3366) (ite $x450 91 90) (ite (= 3 ?x3366) (ite $x450 60 59) ?x475))))
 (let ((?x448 (ite (= 6 ?x3366) (ite $x450 152 151) (ite (= 5 ?x3366) (ite $x450 121 120) ?x478))))
 (let ((?x2939 (ite (= 8 ?x3366) (ite $x450 213 212) (ite (= 7 ?x3366) (ite $x450 182 181) ?x448))))
 (let ((?x713 (ite (= 10 ?x3366) (ite $x450 274 273) (ite (= 9 ?x3366) (ite $x450 244 243) ?x2939))))
 (let ((?x3066 (ite (= 12 ?x3366) (ite $x450 335 334) (ite (= 11 ?x3366) (ite $x450 305 304) ?x713))))
 (let ((?x422 (+ (* 365 (- (+ ?x640 (+ 0 (div ?x230 12))) 1)) (div (- (+ ?x640 (+ 0 (div ?x230 12))) 1) 4))))
 (let ((?x948 (+ (- ?x422 (div (- (+ ?x640 (+ 0 (div ?x230 12))) 1) 100)) (div (- (+ ?x640 (+ 0 (div ?x230 12))) 1) 400))))
 (let ((?x1078 (+ (+ (- (+ (+ ?x948 ?x3066) (- ?x919 1)) 730179) 0) 730179)))
 (let ((?x3419 (mod ?x1078 146097)))
 (let ((?x565 (div ?x3419 36524)))
 (let ((?x386 (ite (<= 4 ?x565) 3 ?x565)))
 (let ((?x628 (- ?x3419 (* ?x386 36524))))
 (let ((?x723 (mod ?x628 1461)))
 (let ((?x815 (div ?x723 365)))
 (let ((?x509 (ite (<= 4 ?x815) 3 ?x815)))
 (let ((?x840 (+ (+ (* (div ?x1078 146097) 400) (* ?x386 100)) (* (div ?x628 1461) 4))))
 (let ((?x637 (+ (+ ?x840 ?x509) 1)))
 (let (($x3682 (or (and (= (mod ?x637 4) 0) (and (distinct (mod ?x637 100) 0) true)) (= (mod ?x637 400) 0))))
 (let ((?x395 (ite $x3682 31 31)))
 (let ((?x373 (- ?x723 (* ?x509 365))))
 (let (($x654 (>= ?x373 ?x395)))
 (let ((?x517 (ite $x3682 60 59)))
 (let (($x3667 (>= ?x373 ?x517)))
 (let ((?x630 (ite $x3682 91 90)))
 (let (($x394 (>= ?x373 ?x630)))
 (let ((?x2580 (ite $x3682 121 120)))
 (let (($x922 (>= ?x373 ?x2580)))
 (let ((?x883 (ite $x922 5 (ite $x394 4 (ite $x3667 3 (ite $x654 2 1))))))
 (let ((?x686 (ite $x3682 152 151)))
 (let (($x3420 (>= ?x373 ?x686)))
 (let ((?x973 (ite $x3682 182 181)))
 (let (($x2296 (>= ?x373 ?x973)))
 (let ((?x841 (ite $x3682 213 212)))
 (let (($x2792 (>= ?x373 ?x841)))
 (let ((?x711 (ite $x3682 244 243)))
 (let (($x2188 (>= ?x373 ?x711)))
 (let ((?x914 (ite $x2188 9 (ite $x2792 8 (ite $x2296 7 (ite $x3420 6 ?x883))))))
 (let ((?x304 (ite $x3682 274 273)))
 (let (($x816 (>= ?x373 ?x304)))
 (let ((?x778 (ite $x3682 305 304)))
 (let (($x3351 (>= ?x373 ?x778)))
 (let ((?x886 (ite $x3682 335 334)))
 (let (($x991 (>= ?x373 ?x886)))
 (let (($x2213 (= 0 0)))
 (let ((?x452 (ite $x2213 ?x3366 (ite $x991 12 (ite $x3351 11 (ite $x816 10 ?x914))))))
 (= x_plus_month ?x452))))))))))))))))))))))))))))))))))))))))))))))))))))))))))))))))))))))))))))))))))))))))))))))))))))))
(assert
 (let ((?x530 (+ x_epoch 730179)))
 (let ((?x467 (mod ?x530 146097)))
 (let ((?x880 (div ?x467 36524)))
 (let ((?x518 (ite (<= 4 ?x880) 3 ?x880)))
 (let ((?x910 (- ?x467 (* ?x518 36524))))
 (let ((?x696 (mod ?x910 1461)))
 (let ((?x777 (div ?x696 365)))
 (let ((?x350 (ite (<= 4 ?x777) 3 ?x777)))
 (let ((?x641 (+ (+ (* (div ?x530 146097) 400) (* ?x518 100)) (* (div ?x910 1461) 4))))
 (let ((?x640 (+ (+ ?x641 ?x350) 1)))
 (let (($x352 (or (and (= (mod ?x640 4) 0) (and (distinct (mod ?x640 100) 0) true)) (= (mod ?x640 400) 0))))
 (let ((?x441 (- ?x696 (* ?x350 365))))
 (let ((?x705 (ite $x352 31 31)))
 (let (($x580 (>= ?x441 ?x705)))
 (let ((?x615 (ite $x580 (+ (- ?x441 ?x705) 1) (+ (- ?x441 (ite $x352 0 0)) 1))))
 (let ((?x451 (ite $x352 60 59)))
 (let (($x339 (>= ?x441 ?x451)))
 (let ((?x889 (ite $x352 91 90)))
 (let (($x266 (>= ?x441 ?x889)))
 (let ((?x524 (ite $x266 (+ (- ?x441 ?x889) 1) (ite $x339 (+ (- ?x441 ?x451) 1) ?x615))))
 (let ((?x758 (ite $x352 121 120)))
 (let (($x2982 (>= ?x441 ?x758)))
 (let ((?x675 (ite $x352 152 151)))
 (let (($x3136 (>= ?x441 ?x675)))
 (let ((?x586 (ite $x3136 (+ (- ?x441 ?x675) 1) (ite $x2982 (+ (- ?x441 ?x758) 1) ?x524))))
 (let ((?x2351 (ite $x352 182 181)))
 (let (($x2212 (>= ?x441 ?x2351)))
 (let ((?x1900 (ite $x352 213 212)))
 (let (($x459 (>= ?x441 ?x1900)))
 (let ((?x379 (ite $x459 (+ (- ?x441 ?x1900) 1) (ite $x2212 (+ (- ?x441 ?x2351) 1) ?x586))))
 (let ((?x779 (ite $x352 244 243)))
 (let (($x891 (>= ?x441 ?x779)))
 (let ((?x783 (ite $x352 274 273)))
 (let (($x521 (>= ?x441 ?x783)))
 (let ((?x938 (ite $x521 (+ (- ?x441 ?x783) 1) (ite $x891 (+ (- ?x441 ?x779) 1) ?x379))))
 (let ((?x865 (ite $x352 305 304)))
 (let (($x623 (>= ?x441 ?x865)))
 (let ((?x297 (ite $x352 335 334)))
 (let (($x693 (>= ?x441 ?x297)))
 (let ((?x688 (ite $x693 (+ (- ?x441 ?x297) 1) (ite $x623 (+ (- ?x441 ?x865) 1) ?x938))))
 (let ((?x2919 (+ (* 1 12) 0)))
 (let ((?x856 (ite $x2982 5 (ite $x266 4 (ite $x339 3 (ite $x580 2 1))))))
 (let ((?x525 (ite $x891 9 (ite $x459 8 (ite $x2212 7 (ite $x3136 6 ?x856))))))
 (let ((?x578 (ite $x693 12 (ite $x623 11 (ite $x521 10 ?x525)))))
 (let ((?x405 (+ ?x578 ?x2919)))
 (let ((?x230 (- ?x405 1)))
 (let ((?x3366 (+ (mod ?x230 12) 1)))
 (let ((?x704 (ite (or (= ?x3366 4) (= ?x3366 6) (= ?x3366 9) (= ?x3366 11)) 30 31)))
 (let (($x941 (and (= (mod (+ ?x640 (+ 0 (div ?x230 12))) 4) 0) (and (distinct (mod (+ ?x640 (+ 0 (div ?x230 12))) 100) 0) true))))
 (let (($x450 (or $x941 (= (mod (+ ?x640 (+ 0 (div ?x230 12))) 400) 0))))
 (let ((?x837 (ite (= ?x3366 2) (ite $x450 29 28) ?x704)))
 (let (($x486 (> 1 ?x688)))
 (let ((?x737 (ite $x486 1 (ite (> ?x688 ?x837) ?x837 ?x688))))
 (let ((?x919 (ite (> 1 ?x737) 1 (ite (> ?x737 ?x837) ?x837 ?x737))))
 (let ((?x475 (ite (= 2 ?x3366) (ite $x450 31 31) (ite (= 1 ?x3366) (ite $x450 0 0) 0))))
 (let ((?x478 (ite (= 4 ?x3366) (ite $x450 91 90) (ite (= 3 ?x3366) (ite $x450 60 59) ?x475))))
 (let ((?x448 (ite (= 6 ?x3366) (ite $x450 152 151) (ite (= 5 ?x3366) (ite $x450 121 120) ?x478))))
 (let ((?x2939 (ite (= 8 ?x3366) (ite $x450 213 212) (ite (= 7 ?x3366) (ite $x450 182 181) ?x448))))
 (let ((?x713 (ite (= 10 ?x3366) (ite $x450 274 273) (ite (= 9 ?x3366) (ite $x450 244 243) ?x2939))))
 (let ((?x3066 (ite (= 12 ?x3366) (ite $x450 335 334) (ite (= 11 ?x3366) (ite $x450 305 304) ?x713))))
 (let ((?x422 (+ (* 365 (- (+ ?x640 (+ 0 (div ?x230 12))) 1)) (div (- (+ ?x640 (+ 0 (div ?x230 12))) 1) 4))))
 (let ((?x948 (+ (- ?x422 (div (- (+ ?x640 (+ 0 (div ?x230 12))) 1) 100)) (div (- (+ ?x640 (+ 0 (div ?x230 12))) 1) 400))))
 (let ((?x1078 (+ (+ (- (+ (+ ?x948 ?x3066) (- ?x919 1)) 730179) 0) 730179)))
 (let ((?x3419 (mod ?x1078 146097)))
 (let ((?x565 (div ?x3419 36524)))
 (let ((?x386 (ite (<= 4 ?x565) 3 ?x565)))
 (let ((?x628 (- ?x3419 (* ?x386 36524))))
 (let ((?x723 (mod ?x628 1461)))
 (let ((?x815 (div ?x723 365)))
 (let ((?x509 (ite (<= 4 ?x815) 3 ?x815)))
 (let ((?x840 (+ (+ (* (div ?x1078 146097) 400) (* ?x386 100)) (* (div ?x628 1461) 4))))
 (let ((?x637 (+ (+ ?x840 ?x509) 1)))
 (let (($x3682 (or (and (= (mod ?x637 4) 0) (and (distinct (mod ?x637 100) 0) true)) (= (mod ?x637 400) 0))))
 (let ((?x373 (- ?x723 (* ?x509 365))))
 (let ((?x395 (ite $x3682 31 31)))
 (let (($x654 (>= ?x373 ?x395)))
 (let ((?x3169 (ite $x654 (+ (- ?x373 ?x395) 1) (+ (- ?x373 (ite $x3682 0 0)) 1))))
 (let ((?x517 (ite $x3682 60 59)))
 (let (($x3667 (>= ?x373 ?x517)))
 (let ((?x630 (ite $x3682 91 90)))
 (let (($x394 (>= ?x373 ?x630)))
 (let ((?x3305 (ite $x394 (+ (- ?x373 ?x630) 1) (ite $x3667 (+ (- ?x373 ?x517) 1) ?x3169))))
 (let ((?x2580 (ite $x3682 121 120)))
 (let (($x922 (>= ?x373 ?x2580)))
 (let ((?x686 (ite $x3682 152 151)))
 (let (($x3420 (>= ?x373 ?x686)))
 (let ((?x848 (ite $x3420 (+ (- ?x373 ?x686) 1) (ite $x922 (+ (- ?x373 ?x2580) 1) ?x3305))))
 (let ((?x973 (ite $x3682 182 181)))
 (let (($x2296 (>= ?x373 ?x973)))
 (let ((?x841 (ite $x3682 213 212)))
 (let (($x2792 (>= ?x373 ?x841)))
 (let ((?x3429 (ite $x2792 (+ (- ?x373 ?x841) 1) (ite $x2296 (+ (- ?x373 ?x973) 1) ?x848))))
 (let ((?x711 (ite $x3682 244 243)))
 (let (($x2188 (>= ?x373 ?x711)))
 (let ((?x304 (ite $x3682 274 273)))
 (let (($x816 (>= ?x373 ?x304)))
 (let ((?x1178 (ite $x816 (+ (- ?x373 ?x304) 1) (ite $x2188 (+ (- ?x373 ?x711) 1) ?x3429))))
 (let ((?x778 (ite $x3682 305 304)))
 (let (($x3351 (>= ?x373 ?x778)))
 (let ((?x886 (ite $x3682 335 334)))
 (let (($x991 (>= ?x373 ?x886)))
 (let ((?x953 (ite $x991 (+ (- ?x373 ?x886) 1) (ite $x3351 (+ (- ?x373 ?x778) 1) ?x1178))))
 (let (($x2213 (= 0 0)))
 (let ((?x2171 (ite $x2213 ?x919 ?x953)))
 (= x_plus_day ?x2171))))))))))))))))))))))))))))))))))))))))))))))))))))))))))))))))))))))))))))))))))))))))))))))))))))))))))
(assert
 (>= x_plus_1_epoch (- 36584)))
(assert
 (<= x_plus_1_epoch 36829))
(assert
 (= x_plus_1_epoch (+ x_epoch 365)))
(assert
 (not (= x_plus_epoch x_plus_1_epoch)))
(check-sat)
